33D32945 STP File, STP Format Version 1.0

SECTION Comment
Name	"MWCS-I-D-n-500-a-0.62-d-0.5-e-0.75"
Creator	"CWI_LS_GWK"
Comment	"converted from format used in Alvarez-Miranda et al., based on the random geometric instances of Johnson et al."
END

SECTION Graph
Nodes  500
Edges  2597
E  0 17
E  0 319
E  0 322
E  1 5
E  1 55
E  1 75
E  1 112
E  1 120
E  1 174
E  1 188
E  1 198
E  1 254
E  1 354
E  2 101
E  2 140
E  2 202
E  2 259
E  2 261
E  2 268
E  2 276
E  2 293
E  2 417
E  2 422
E  2 429
E  2 444
E  3 85
E  3 147
E  3 197
E  3 208
E  3 237
E  3 271
E  3 379
E  3 385
E  4 18
E  4 20
E  4 35
E  4 88
E  4 136
E  4 146
E  4 183
E  4 280
E  4 286
E  4 381
E  4 418
E  4 442
E  4 450
E  4 477
E  5 51
E  5 55
E  5 135
E  5 174
E  5 188
E  5 198
E  5 275
E  5 291
E  5 342
E  5 498
E  6 37
E  6 49
E  6 63
E  6 74
E  6 149
E  6 160
E  6 165
E  6 302
E  6 306
E  6 349
E  6 444
E  6 483
E  7 213
E  7 263
E  8 64
E  8 109
E  8 137
E  8 143
E  8 172
E  8 189
E  8 248
E  8 265
E  8 296
E  8 298
E  8 389
E  8 392
E  8 451
E  9 43
E  9 57
E  9 93
E  9 205
E  9 239
E  9 267
E  9 391
E  9 453
E  9 461
E  9 466
E  9 497
E  10 256
E  10 446
E  11 148
E  11 295
E  11 310
E  11 365
E  11 490
E  12 172
E  12 189
E  12 223
E  12 265
E  12 296
E  12 324
E  12 366
E  12 389
E  12 392
E  12 440
E  12 451
E  12 469
E  13 14
E  13 101
E  13 184
E  13 261
E  13 331
E  13 372
E  13 429
E  13 438
E  13 476
E  14 101
E  14 114
E  14 116
E  14 184
E  14 255
E  14 261
E  14 331
E  14 372
E  14 429
E  15 47
E  15 87
E  15 108
E  15 120
E  15 163
E  15 180
E  15 186
E  15 229
E  15 252
E  15 258
E  15 354
E  15 361
E  15 400
E  15 433
E  15 455
E  16 70
E  16 72
E  16 141
E  16 157
E  16 159
E  16 282
E  16 316
E  16 368
E  17 108
E  17 163
E  17 173
E  17 224
E  17 233
E  17 299
E  17 303
E  17 319
E  17 322
E  17 369
E  17 376
E  17 387
E  17 454
E  17 455
E  17 487
E  18 25
E  18 92
E  18 117
E  18 176
E  18 183
E  18 230
E  18 245
E  18 286
E  18 377
E  18 381
E  18 418
E  18 468
E  18 477
E  19 42
E  19 69
E  19 72
E  19 124
E  19 157
E  19 159
E  19 167
E  19 190
E  19 191
E  19 216
E  19 412
E  20 35
E  20 88
E  20 136
E  20 146
E  20 195
E  20 257
E  20 280
E  20 381
E  20 418
E  20 442
E  20 450
E  21 68
E  21 253
E  21 273
E  21 474
E  21 484
E  22 80
E  22 97
E  22 125
E  22 221
E  22 272
E  22 405
E  22 463
E  22 473
E  23 36
E  23 72
E  23 80
E  23 98
E  23 100
E  23 113
E  23 187
E  23 215
E  23 386
E  23 402
E  23 436
E  24 204
E  24 264
E  24 339
E  24 479
E  25 92
E  25 117
E  25 176
E  25 183
E  25 185
E  25 245
E  25 281
E  25 468
E  27 40
E  27 42
E  27 69
E  27 119
E  27 124
E  27 161
E  27 167
E  27 259
E  27 268
E  27 276
E  27 293
E  27 333
E  27 367
E  27 417
E  27 435
E  28 33
E  28 86
E  28 154
E  28 181
E  28 199
E  28 288
E  28 312
E  28 321
E  28 434
E  29 65
E  29 225
E  29 388
E  29 475
E  29 496
E  30 53
E  30 67
E  30 192
E  30 263
E  30 323
E  30 384
E  30 430
E  30 441
E  30 447
E  30 449
E  31 131
E  31 156
E  31 294
E  31 394
E  31 427
E  31 428
E  31 432
E  31 482
E  31 491
E  32 78
E  32 151
E  32 219
E  32 231
E  32 304
E  32 393
E  33 86
E  33 154
E  33 181
E  33 199
E  33 288
E  33 312
E  33 321
E  33 335
E  33 362
E  33 425
E  33 434
E  34 66
E  34 89
E  34 116
E  34 118
E  34 123
E  34 127
E  34 228
E  34 232
E  34 255
E  34 269
E  34 277
E  34 315
E  34 356
E  34 380
E  34 413
E  34 456
E  35 88
E  35 136
E  35 146
E  35 226
E  35 280
E  35 381
E  35 418
E  35 442
E  35 450
E  36 72
E  36 80
E  36 98
E  36 100
E  36 113
E  36 191
E  36 386
E  36 402
E  36 436
E  37 49
E  37 58
E  37 60
E  37 63
E  37 149
E  37 165
E  37 306
E  37 330
E  37 349
E  37 439
E  37 493
E  38 45
E  38 77
E  38 103
E  38 107
E  38 214
E  38 218
E  38 274
E  38 305
E  38 415
E  38 423
E  39 128
E  39 131
E  39 156
E  39 193
E  39 287
E  39 294
E  39 348
E  39 388
E  40 42
E  40 69
E  40 119
E  40 124
E  40 161
E  40 167
E  40 259
E  40 276
E  40 293
E  40 367
E  40 417
E  40 435
E  41 74
E  41 96
E  41 126
E  41 178
E  41 196
E  41 301
E  41 306
E  41 338
E  41 409
E  41 483
E  42 69
E  42 119
E  42 124
E  42 157
E  42 159
E  42 161
E  42 167
E  42 190
E  42 202
E  42 259
E  42 276
E  42 367
E  42 412
E  43 57
E  43 199
E  43 203
E  43 251
E  43 288
E  43 453
E  43 461
E  43 466
E  44 158
E  44 166
E  44 271
E  44 326
E  44 353
E  44 360
E  44 385
E  44 470
E  45 103
E  45 107
E  45 200
E  45 214
E  45 305
E  45 401
E  45 415
E  46 52
E  46 60
E  46 99
E  46 144
E  46 212
E  46 333
E  46 336
E  46 370
E  46 459
E  46 485
E  47 87
E  47 108
E  47 163
E  47 180
E  47 186
E  47 229
E  47 252
E  47 258
E  47 354
E  47 361
E  47 400
E  47 433
E  47 455
E  48 53
E  48 67
E  48 79
E  48 94
E  48 97
E  48 125
E  48 313
E  48 384
E  48 396
E  48 430
E  48 449
E  48 473
E  48 480
E  49 63
E  49 74
E  49 160
E  49 165
E  49 268
E  49 293
E  49 302
E  49 306
E  49 349
E  49 444
E  49 483
E  50 51
E  50 55
E  50 106
E  50 244
E  50 275
E  50 291
E  50 342
E  50 498
E  51 55
E  51 135
E  51 151
E  51 174
E  51 188
E  51 244
E  51 275
E  51 291
E  51 342
E  51 498
E  52 99
E  52 144
E  52 152
E  52 333
E  52 367
E  52 370
E  52 411
E  52 458
E  53 67
E  53 125
E  53 323
E  53 384
E  53 396
E  53 430
E  53 441
E  53 447
E  53 449
E  54 168
E  54 171
E  54 236
E  54 257
E  54 280
E  54 395
E  54 406
E  54 494
E  55 135
E  55 151
E  55 174
E  55 188
E  55 198
E  55 275
E  55 291
E  55 342
E  55 498
E  56 81
E  56 149
E  56 175
E  56 226
E  56 328
E  56 359
E  56 409
E  57 90
E  57 93
E  57 122
E  57 199
E  57 205
E  57 239
E  57 251
E  57 267
E  57 362
E  57 391
E  57 425
E  57 453
E  57 461
E  57 466
E  58 76
E  58 149
E  58 164
E  58 165
E  58 330
E  58 375
E  58 439
E  58 493
E  59 95
E  59 153
E  59 246
E  59 292
E  59 303
E  59 369
E  59 407
E  60 63
E  60 212
E  60 336
E  60 349
E  60 370
E  60 435
E  60 439
E  60 459
E  60 493
E  61 133
E  61 240
E  61 352
E  61 414
E  62 118
E  62 139
E  62 227
E  62 230
E  62 232
E  62 277
E  62 286
E  62 307
E  62 315
E  62 356
E  62 377
E  62 380
E  62 390
E  62 398
E  62 416
E  62 445
E  62 477
E  63 149
E  63 160
E  63 165
E  63 268
E  63 293
E  63 306
E  63 330
E  63 349
E  63 444
E  63 483
E  64 105
E  64 109
E  64 137
E  64 143
E  64 169
E  64 248
E  64 265
E  64 298
E  64 389
E  64 392
E  65 225
E  65 388
E  65 475
E  65 496
E  66 184
E  66 228
E  66 270
E  66 413
E  66 456
E  66 476
E  67 125
E  67 384
E  67 386
E  67 430
E  67 441
E  67 447
E  67 449
E  68 253
E  68 273
E  68 382
E  68 474
E  68 484
E  69 119
E  69 124
E  69 157
E  69 159
E  69 161
E  69 167
E  69 190
E  69 259
E  69 412
E  70 157
E  70 159
E  70 202
E  70 282
E  70 316
E  70 368
E  71 76
E  71 111
E  71 283
E  71 320
E  71 459
E  71 485
E  72 98
E  72 100
E  72 141
E  72 187
E  72 215
E  72 402
E  72 436
E  72 465
E  73 283
E  73 363
E  74 126
E  74 149
E  74 160
E  74 165
E  74 178
E  74 196
E  74 301
E  74 306
E  74 338
E  74 483
E  75 87
E  75 112
E  75 120
E  75 170
E  75 254
E  75 347
E  75 354
E  76 242
E  76 320
E  76 330
E  76 336
E  76 439
E  76 459
E  76 493
E  77 103
E  77 121
E  77 129
E  77 211
E  77 214
E  77 218
E  77 340
E  77 415
E  77 423
E  78 219
E  78 304
E  78 393
E  79 94
E  79 97
E  79 266
E  79 329
E  79 394
E  79 405
E  79 427
E  79 428
E  79 432
E  79 473
E  79 480
E  80 191
E  80 216
E  80 221
E  80 272
E  80 402
E  80 463
E  81 88
E  81 130
E  81 175
E  81 226
E  81 328
E  81 359
E  81 395
E  81 409
E  81 443
E  82 102
E  82 272
E  82 300
E  82 345
E  82 346
E  82 437
E  82 463
E  83 128
E  83 193
E  83 225
E  83 241
E  83 337
E  83 339
E  83 348
E  83 351
E  83 475
E  83 496
E  84 87
E  84 120
E  84 170
E  84 229
E  84 243
E  84 299
E  84 350
E  84 467
E  85 147
E  85 208
E  85 237
E  85 249
E  85 379
E  85 478
E  86 154
E  86 181
E  86 222
E  86 262
E  86 279
E  86 312
E  86 321
E  86 397
E  86 434
E  86 499
E  87 120
E  87 170
E  87 229
E  87 243
E  87 254
E  87 354
E  87 433
E  88 136
E  88 146
E  88 226
E  88 280
E  88 381
E  88 418
E  88 442
E  88 450
E  89 118
E  89 123
E  89 127
E  89 220
E  89 232
E  89 269
E  89 277
E  89 315
E  89 327
E  89 332
E  89 356
E  89 380
E  89 398
E  89 413
E  89 416
E  89 456
E  90 93
E  90 122
E  90 134
E  90 192
E  90 235
E  90 239
E  90 267
E  90 362
E  90 425
E  90 461
E  91 138
E  91 177
E  91 201
E  91 207
E  91 295
E  92 117
E  92 183
E  92 185
E  92 245
E  92 344
E  92 378
E  92 468
E  93 122
E  93 179
E  93 205
E  93 235
E  93 239
E  93 267
E  93 310
E  93 357
E  93 391
E  93 461
E  93 490
E  94 97
E  94 266
E  94 313
E  94 329
E  94 427
E  94 432
E  94 473
E  94 480
E  95 109
E  95 153
E  95 189
E  95 248
E  95 265
E  95 298
E  95 373
E  95 389
E  95 407
E  96 126
E  96 196
E  96 226
E  96 286
E  96 307
E  96 338
E  96 409
E  96 418
E  96 445
E  96 477
E  97 125
E  97 221
E  97 266
E  97 329
E  97 405
E  97 432
E  97 473
E  97 480
E  98 100
E  98 113
E  98 187
E  98 215
E  98 386
E  98 402
E  98 436
E  98 462
E  99 144
E  99 152
E  99 333
E  99 367
E  99 370
E  99 411
E  99 458
E  99 472
E  100 113
E  100 141
E  100 187
E  100 215
E  100 386
E  100 402
E  100 436
E  100 462
E  101 261
E  101 302
E  101 331
E  101 372
E  101 429
E  101 444
E  102 156
E  102 221
E  102 272
E  102 345
E  102 405
E  102 437
E  102 463
E  103 107
E  103 121
E  103 200
E  103 214
E  103 305
E  103 340
E  103 401
E  103 415
E  104 132
E  104 176
E  104 217
E  104 281
E  104 289
E  104 371
E  104 408
E  104 410
E  104 420
E  104 426
E  104 457
E  104 468
E  105 137
E  105 143
E  105 154
E  105 169
E  105 222
E  105 288
E  105 298
E  105 312
E  105 397
E  106 244
E  107 214
E  107 274
E  107 305
E  107 415
E  108 163
E  108 173
E  108 180
E  108 186
E  108 224
E  108 229
E  108 233
E  108 252
E  108 258
E  108 299
E  108 303
E  108 319
E  108 322
E  108 369
E  108 376
E  108 400
E  108 454
E  108 455
E  108 487
E  109 153
E  109 189
E  109 248
E  109 265
E  109 298
E  109 324
E  109 373
E  109 389
E  109 407
E  109 451
E  110 206
E  110 225
E  110 234
E  110 241
E  110 355
E  110 452
E  110 475
E  110 496
E  111 204
E  111 283
E  111 363
E  112 120
E  112 194
E  112 254
E  112 347
E  112 354
E  112 403
E  113 187
E  113 215
E  113 335
E  113 386
E  113 402
E  113 436
E  113 441
E  113 462
E  114 116
E  114 178
E  114 255
E  114 301
E  114 302
E  114 331
E  115 142
E  115 209
E  115 314
E  115 368
E  115 422
E  115 438
E  115 471
E  115 486
E  116 123
E  116 127
E  116 184
E  116 255
E  116 269
E  116 277
E  116 331
E  116 356
E  116 456
E  117 183
E  117 195
E  117 344
E  117 378
E  117 381
E  117 382
E  117 448
E  117 450
E  117 484
E  118 123
E  118 127
E  118 220
E  118 232
E  118 255
E  118 269
E  118 277
E  118 307
E  118 315
E  118 356
E  118 380
E  118 398
E  118 413
E  118 416
E  118 456
E  119 124
E  119 140
E  119 157
E  119 159
E  119 161
E  119 167
E  119 190
E  119 202
E  119 259
E  119 276
E  120 170
E  120 229
E  120 254
E  120 347
E  120 354
E  120 433
E  121 129
E  121 150
E  121 200
E  121 211
E  121 214
E  121 340
E  121 401
E  121 410
E  121 415
E  121 420
E  121 421
E  122 134
E  122 199
E  122 235
E  122 239
E  122 251
E  122 267
E  122 362
E  122 425
E  122 453
E  122 461
E  123 127
E  123 228
E  123 232
E  123 255
E  123 269
E  123 277
E  123 307
E  123 315
E  123 356
E  123 380
E  123 413
E  123 456
E  124 152
E  124 159
E  124 161
E  124 167
E  124 190
E  124 259
E  124 367
E  124 412
E  125 313
E  125 384
E  125 430
E  125 449
E  125 473
E  125 480
E  126 178
E  126 196
E  126 301
E  126 338
E  126 409
E  126 483
E  127 232
E  127 255
E  127 269
E  127 277
E  127 307
E  127 315
E  127 356
E  127 380
E  127 413
E  127 456
E  128 193
E  128 264
E  128 287
E  128 337
E  128 348
E  128 351
E  128 479
E  129 139
E  129 211
E  129 327
E  129 332
E  129 340
E  129 420
E  129 421
E  130 155
E  130 168
E  130 171
E  130 175
E  130 236
E  130 257
E  130 260
E  130 328
E  130 395
E  130 443
E  130 494
E  131 294
E  131 388
E  131 394
E  131 482
E  131 491
E  132 150
E  132 217
E  132 289
E  132 318
E  132 408
E  132 410
E  132 420
E  132 426
E  133 284
E  133 290
E  133 352
E  133 414
E  134 192
E  134 235
E  134 335
E  134 362
E  134 425
E  135 151
E  135 174
E  135 188
E  135 231
E  135 275
E  135 291
E  135 350
E  135 498
E  136 146
E  136 183
E  136 195
E  136 280
E  136 381
E  136 418
E  136 442
E  136 450
E  137 143
E  137 154
E  137 169
E  137 288
E  137 298
E  137 312
E  138 148
E  138 177
E  138 201
E  138 207
E  138 295
E  138 365
E  138 490
E  138 497
E  139 220
E  139 227
E  139 315
E  139 327
E  139 332
E  139 371
E  139 377
E  139 380
E  139 390
E  139 398
E  139 416
E  140 159
E  140 161
E  140 202
E  140 259
E  140 276
E  140 417
E  140 422
E  140 438
E  141 181
E  141 187
E  141 215
E  141 316
E  141 434
E  141 436
E  141 465
E  142 314
E  142 422
E  142 438
E  142 471
E  142 486
E  143 154
E  143 169
E  143 288
E  143 298
E  143 312
E  144 333
E  144 336
E  144 370
E  144 411
E  144 458
E  144 472
E  144 485
E  145 185
E  145 253
E  145 317
E  145 325
E  145 341
E  145 343
E  145 344
E  145 382
E  146 195
E  146 257
E  146 280
E  146 381
E  146 418
E  146 442
E  146 450
E  147 208
E  147 237
E  147 249
E  147 379
E  147 478
E  148 201
E  148 205
E  148 207
E  148 295
E  148 310
E  148 357
E  148 365
E  148 391
E  148 490
E  148 497
E  149 165
E  149 306
E  149 330
E  149 359
E  149 483
E  150 200
E  150 217
E  150 318
E  150 401
E  150 410
E  150 420
E  150 421
E  151 174
E  151 188
E  151 231
E  151 291
E  151 309
E  151 350
E  151 399
E  152 333
E  152 346
E  152 367
E  152 370
E  152 411
E  152 458
E  153 233
E  153 303
E  153 319
E  153 369
E  153 373
E  153 376
E  153 407
E  154 199
E  154 251
E  154 288
E  154 312
E  154 321
E  155 171
E  155 175
E  155 260
E  155 328
E  155 359
E  155 383
E  156 287
E  156 294
E  156 329
E  156 345
E  156 394
E  156 405
E  156 437
E  157 159
E  157 167
E  157 202
E  158 211
E  158 332
E  158 353
E  158 470
E  158 481
E  159 167
E  159 202
E  159 259
E  160 165
E  160 302
E  160 306
E  160 349
E  160 444
E  160 483
E  161 167
E  161 259
E  161 268
E  161 276
E  161 293
E  161 367
E  161 417
E  161 435
E  162 247
E  162 299
E  162 364
E  162 387
E  162 467
E  162 487
E  162 488
E  163 173
E  163 180
E  163 186
E  163 224
E  163 229
E  163 233
E  163 252
E  163 258
E  163 299
E  163 303
E  163 319
E  163 322
E  163 369
E  163 376
E  163 400
E  163 433
E  163 454
E  163 455
E  163 487
E  164 242
E  164 256
E  164 330
E  164 359
E  164 375
E  164 383
E  165 306
E  165 330
E  165 349
E  165 483
E  165 493
E  166 197
E  166 271
E  166 285
E  166 311
E  166 326
E  166 360
E  166 385
E  166 403
E  166 470
E  167 190
E  167 202
E  167 259
E  167 412
E  168 171
E  168 236
E  168 257
E  168 395
E  168 443
E  168 494
E  169 222
E  169 248
E  169 298
E  169 312
E  169 397
E  170 229
E  170 243
E  170 254
E  170 350
E  170 354
E  171 236
E  171 257
E  171 260
E  171 328
E  171 395
E  171 443
E  171 494
E  172 250
E  172 265
E  172 278
E  172 296
E  172 334
E  172 366
E  172 392
E  172 440
E  173 224
E  173 299
E  173 319
E  173 322
E  173 376
E  173 387
E  173 454
E  173 455
E  173 487
E  174 188
E  174 275
E  174 291
E  174 350
E  174 498
E  175 328
E  175 359
E  175 395
E  175 443
E  176 227
E  176 230
E  176 245
E  176 281
E  176 289
E  176 371
E  176 377
E  176 390
E  176 457
E  176 468
E  177 201
E  177 207
E  178 196
E  178 255
E  178 301
E  178 307
E  178 338
E  178 409
E  178 483
E  179 213
E  179 310
E  179 357
E  179 365
E  179 490
E  180 186
E  180 229
E  180 252
E  180 258
E  180 361
E  180 400
E  180 433
E  180 454
E  180 455
E  181 308
E  181 316
E  181 321
E  181 434
E  181 465
E  181 499
E  182 238
E  182 270
E  182 285
E  182 297
E  182 326
E  182 492
E  183 230
E  183 245
E  183 378
E  183 381
E  183 418
E  183 442
E  183 450
E  183 477
E  184 228
E  184 331
E  184 372
E  184 429
E  184 476
E  185 245
E  185 281
E  185 317
E  185 325
E  185 341
E  185 343
E  185 344
E  185 382
E  185 426
E  185 457
E  185 468
E  186 224
E  186 229
E  186 252
E  186 258
E  186 400
E  186 433
E  186 454
E  186 455
E  187 215
E  187 335
E  187 402
E  187 436
E  187 462
E  187 465
E  188 275
E  188 291
E  188 342
E  188 350
E  188 498
E  189 223
E  189 248
E  189 265
E  189 324
E  189 373
E  189 389
E  189 451
E  189 469
E  190 191
E  190 216
E  190 346
E  190 367
E  190 412
E  191 216
E  191 272
E  191 346
E  191 412
E  191 463
E  192 235
E  192 441
E  192 447
E  193 264
E  193 287
E  193 337
E  193 348
E  193 351
E  193 388
E  193 479
E  194 311
E  194 347
E  194 379
E  194 385
E  194 403
E  195 210
E  195 280
E  195 378
E  195 381
E  195 448
E  195 450
E  196 301
E  196 338
E  196 409
E  196 483
E  197 208
E  197 218
E  197 271
E  197 360
E  197 379
E  197 385
E  198 275
E  198 342
E  198 379
E  198 478
E  199 251
E  199 288
E  199 312
E  199 362
E  199 425
E  199 453
E  200 214
E  200 305
E  200 318
E  200 401
E  200 415
E  201 207
E  201 295
E  201 497
E  202 259
E  202 276
E  202 422
E  203 250
E  203 278
E  203 466
E  204 283
E  204 339
E  204 424
E  204 464
E  205 239
E  205 267
E  205 310
E  205 357
E  205 365
E  205 391
E  205 461
E  205 466
E  205 490
E  205 497
E  206 225
E  206 234
E  206 241
E  206 337
E  206 431
E  206 452
E  206 475
E  206 496
E  207 295
E  208 237
E  208 379
E  208 478
E  209 282
E  209 308
E  209 368
E  209 404
E  209 486
E  210 273
E  210 448
E  210 474
E  210 484
E  211 332
E  211 340
E  211 481
E  212 268
E  212 293
E  212 333
E  212 336
E  212 367
E  212 370
E  212 435
E  214 305
E  214 340
E  214 401
E  214 415
E  214 421
E  215 335
E  215 386
E  215 402
E  215 436
E  215 462
E  215 465
E  216 272
E  216 346
E  216 412
E  216 463
E  217 281
E  217 289
E  217 318
E  217 371
E  217 408
E  217 410
E  217 420
E  217 426
E  217 457
E  218 271
E  218 423
E  219 231
E  219 304
E  219 393
E  220 277
E  220 315
E  220 327
E  220 332
E  220 380
E  220 398
E  220 416
E  220 481
E  221 266
E  221 272
E  221 329
E  221 345
E  221 405
E  221 463
E  221 473
E  222 246
E  222 262
E  222 279
E  222 298
E  222 312
E  222 374
E  222 397
E  223 265
E  223 296
E  223 324
E  223 366
E  223 373
E  223 440
E  223 451
E  223 469
E  224 229
E  224 252
E  224 258
E  224 299
E  224 322
E  224 387
E  224 400
E  224 454
E  224 455
E  224 487
E  225 241
E  225 337
E  225 351
E  225 388
E  225 452
E  225 475
E  225 496
E  226 409
E  226 442
E  227 230
E  227 327
E  227 371
E  227 377
E  227 380
E  227 390
E  227 398
E  227 416
E  227 445
E  227 477
E  228 269
E  228 413
E  228 456
E  228 476
E  229 252
E  229 258
E  229 299
E  229 354
E  229 400
E  229 433
E  229 455
E  230 286
E  230 377
E  230 390
E  230 398
E  230 416
E  230 418
E  230 445
E  230 477
E  231 309
E  231 350
E  231 399
E  232 255
E  232 269
E  232 277
E  232 307
E  232 315
E  232 356
E  232 380
E  232 398
E  232 416
E  232 456
E  233 303
E  233 319
E  233 369
E  233 376
E  233 454
E  233 455
E  234 241
E  234 355
E  234 452
E  234 496
E  235 239
E  235 267
E  235 362
E  235 425
E  235 461
E  236 257
E  236 395
E  236 494
E  237 249
E  237 379
E  237 478
E  238 270
E  238 285
E  238 297
E  238 326
E  238 492
E  239 267
E  239 362
E  239 391
E  239 425
E  239 453
E  239 461
E  240 246
E  240 292
E  240 414
E  240 495
E  241 337
E  241 339
E  241 351
E  241 452
E  241 475
E  241 496
E  242 256
E  242 320
E  242 375
E  242 383
E  242 446
E  243 309
E  243 350
E  243 364
E  243 399
E  243 467
E  243 488
E  244 275
E  244 342
E  244 498
E  245 281
E  245 344
E  245 457
E  245 468
E  246 262
E  246 279
E  246 292
E  246 374
E  246 397
E  246 407
E  247 309
E  247 364
E  247 399
E  247 467
E  247 488
E  248 265
E  248 298
E  248 389
E  248 407
E  248 451
E  249 274
E  250 278
E  250 334
E  251 288
E  251 312
E  251 362
E  251 425
E  251 453
E  251 461
E  252 258
E  252 361
E  252 400
E  252 433
E  252 454
E  252 455
E  253 317
E  253 325
E  253 344
E  253 382
E  253 474
E  253 484
E  254 347
E  254 354
E  255 269
E  255 277
E  255 301
E  255 307
E  255 356
E  255 456
E  256 375
E  256 383
E  256 446
E  257 280
E  257 395
E  257 443
E  257 494
E  258 361
E  258 400
E  258 433
E  258 454
E  258 455
E  259 268
E  259 276
E  259 417
E  260 328
E  260 383
E  260 446
E  261 302
E  261 331
E  261 372
E  261 429
E  261 444
E  262 279
E  262 374
E  262 397
E  262 499
E  263 323
E  263 447
E  264 287
E  264 300
E  264 348
E  264 472
E  264 479
E  264 489
E  265 296
E  265 298
E  265 324
E  265 366
E  265 373
E  265 389
E  265 392
E  265 451
E  266 329
E  266 394
E  266 405
E  266 427
E  266 428
E  266 432
E  266 473
E  266 480
E  267 362
E  267 391
E  267 425
E  267 453
E  267 461
E  268 276
E  268 293
E  268 349
E  268 417
E  268 435
E  268 444
E  269 277
E  269 307
E  269 315
E  269 356
E  269 380
E  269 413
E  269 456
E  270 326
E  270 476
E  271 360
E  271 385
E  271 423
E  271 470
E  272 345
E  272 346
E  272 463
E  273 448
E  273 474
E  273 484
E  274 305
E  275 291
E  275 342
E  275 478
E  275 498
E  276 293
E  276 417
E  277 307
E  277 315
E  277 356
E  277 380
E  277 398
E  277 413
E  277 416
E  277 456
E  278 296
E  278 334
E  278 366
E  278 392
E  278 440
E  279 374
E  279 397
E  279 495
E  279 499
E  280 395
E  280 442
E  280 443
E  280 450
E  281 289
E  281 371
E  281 426
E  281 457
E  281 468
E  282 308
E  282 316
E  282 368
E  283 363
E  284 290
E  284 314
E  284 352
E  285 297
E  285 311
E  285 326
E  285 360
E  285 403
E  285 492
E  286 307
E  286 377
E  286 416
E  286 418
E  286 445
E  286 477
E  287 294
E  287 300
E  287 348
E  287 437
E  287 479
E  288 312
E  288 362
E  288 453
E  289 371
E  289 410
E  289 420
E  289 426
E  289 457
E  290 314
E  290 404
E  290 486
E  291 498
E  292 407
E  292 414
E  293 349
E  293 417
E  293 435
E  293 444
E  294 394
E  294 405
E  294 427
E  294 428
E  294 437
E  294 482
E  294 491
E  295 365
E  295 490
E  295 497
E  296 366
E  296 389
E  296 392
E  296 440
E  296 451
E  297 347
E  297 358
E  297 492
E  298 389
E  298 407
E  299 322
E  299 387
E  299 400
E  299 455
E  299 487
E  300 348
E  300 437
E  300 472
E  300 479
E  300 489
E  301 302
E  301 307
E  301 338
E  301 483
E  302 306
E  302 331
E  302 444
E  302 483
E  303 319
E  303 369
E  303 376
E  303 454
E  303 455
E  304 393
E  305 415
E  306 349
E  306 444
E  306 483
E  307 338
E  307 356
E  307 380
E  307 416
E  307 445
E  308 316
E  308 368
E  308 499
E  309 350
E  309 364
E  309 399
E  309 467
E  309 488
E  310 357
E  310 365
E  310 490
E  311 347
E  311 360
E  311 379
E  311 385
E  311 403
E  312 397
E  313 396
E  313 430
E  313 480
E  314 422
E  314 438
E  314 471
E  314 486
E  315 327
E  315 332
E  315 356
E  315 380
E  315 398
E  315 413
E  315 416
E  315 456
E  316 368
E  316 434
E  316 465
E  317 325
E  317 341
E  317 343
E  317 344
E  317 382
E  318 401
E  318 410
E  319 322
E  319 369
E  319 376
E  319 454
E  320 439
E  320 459
E  321 335
E  321 434
E  321 465
E  322 376
E  322 387
E  322 487
E  323 396
E  323 430
E  324 373
E  324 451
E  324 469
E  325 343
E  325 344
E  325 382
E  325 474
E  326 353
E  326 360
E  326 470
E  326 492
E  327 332
E  327 380
E  327 390
E  327 398
E  327 416
E  328 359
E  328 383
E  328 395
E  328 443
E  329 394
E  329 405
E  329 427
E  329 428
E  329 432
E  329 473
E  329 480
E  330 349
E  330 375
E  330 439
E  330 493
E  331 372
E  331 429
E  332 481
E  333 367
E  333 370
E  333 411
E  333 435
E  333 458
E  334 366
E  334 440
E  335 462
E  336 370
E  336 439
E  336 459
E  336 485
E  336 493
E  337 339
E  337 351
E  337 475
E  337 496
E  338 409
E  338 483
E  339 351
E  339 424
E  339 464
E  340 415
E  340 421
E  341 343
E  341 408
E  341 426
E  341 457
E  342 478
E  342 498
E  343 344
E  343 426
E  343 457
E  343 468
E  344 378
E  344 382
E  344 474
E  344 484
E  345 346
E  345 437
E  345 463
E  346 411
E  346 412
E  346 458
E  346 463
E  347 354
E  347 358
E  347 403
E  348 351
E  348 472
E  348 479
E  348 489
E  349 444
E  349 483
E  350 364
E  350 399
E  350 467
E  351 475
E  351 496
E  352 414
E  353 470
E  353 481
E  354 433
E  355 452
E  356 380
E  356 416
E  356 456
E  357 365
E  357 391
E  357 490
E  358 361
E  358 492
E  359 375
E  359 383
E  360 385
E  360 403
E  360 470
E  361 433
E  362 425
E  362 453
E  362 461
E  363 419
E  364 399
E  364 467
E  364 488
E  365 490
E  366 392
E  366 440
E  366 451
E  367 370
E  367 411
E  367 435
E  367 458
E  368 486
E  369 376
E  369 454
E  369 455
E  370 411
E  370 458
E  371 390
E  371 410
E  371 420
E  371 421
E  372 429
E  372 438
E  372 476
E  373 451
E  373 469
E  374 397
E  374 495
E  374 499
E  375 383
E  375 439
E  376 454
E  376 455
E  377 380
E  377 390
E  377 398
E  377 416
E  377 445
E  377 477
E  378 382
E  378 448
E  378 474
E  378 484
E  379 385
E  379 478
E  380 390
E  380 398
E  380 416
E  381 418
E  381 442
E  381 450
E  382 474
E  382 484
E  383 446
E  384 386
E  384 430
E  384 441
E  384 447
E  384 449
E  385 403
E  385 470
E  386 402
E  386 436
E  386 441
E  386 449
E  386 462
E  387 487
E  388 482
E  389 392
E  389 451
E  390 398
E  390 416
E  390 477
E  391 453
E  391 461
E  391 466
E  391 497
E  392 440
E  392 451
E  394 405
E  394 427
E  394 428
E  394 432
E  394 482
E  394 491
E  395 443
E  395 494
E  396 430
E  397 499
E  398 416
E  399 467
E  399 488
E  400 433
E  400 454
E  400 455
E  401 410
E  401 415
E  401 421
E  402 436
E  404 486
E  404 495
E  405 427
E  405 428
E  405 432
E  405 473
E  405 480
E  406 460
E  408 426
E  410 420
E  410 421
E  411 458
E  411 472
E  413 456
E  415 423
E  416 445
E  416 477
E  417 435
E  417 444
E  418 442
E  418 445
E  418 450
E  418 477
E  419 424
E  419 431
E  419 464
E  420 421
E  422 429
E  422 438
E  422 471
E  424 431
E  424 464
E  425 461
E  426 457
E  426 468
E  427 428
E  427 432
E  427 480
E  427 482
E  427 491
E  428 432
E  428 482
E  428 491
E  429 438
E  430 449
E  431 464
E  432 473
E  432 480
E  432 491
E  433 455
E  434 465
E  434 499
E  436 462
E  438 471
E  439 459
E  439 493
E  441 447
E  441 449
E  441 462
E  442 450
E  445 477
E  447 462
E  448 450
E  448 474
E  448 484
E  451 469
E  452 475
E  452 496
E  453 461
E  453 466
E  454 455
E  455 487
E  457 468
E  459 485
E  459 493
E  466 497
E  467 488
E  471 486
E  472 479
E  472 489
E  473 480
E  474 484
E  475 496
E  479 489
E  482 491
E  18 445
E  96 178
E  129 371
E  169 262
E  196 226
E  208 249
E  216 345
E  305 423
E  320 493
E  327 371
E  381 477
E  5 254
E  18 442
E  27 152
E  47 120
E  126 306
E  286 442
E  287 489
E  290 352
E  472 485
E  11 138
E  27 212
E  43 391
E  156 491
E  189 296
E  226 443
E  413 481
E  155 164
E  156 427
E  177 295
E  335 465
E  375 493
E  402 462
E  14 302
E  62 89
E  151 498
E  200 421
E  210 460
E  256 320
E  337 452
E  24 424
E  40 268
E  43 362
E  63 212
E  64 189
E  173 400
E  243 247
E  265 440
E  379 403
E  23 141
E  74 409
E  95 324
E  134 462
E  164 439
E  308 434
E  340 401
E  346 367
E  40 140
E  138 205
E  152 190
E  156 428
E  174 243
E  185 378
E  199 461
E  263 396
E  287 388
E  325 341
E  69 70
E  70 167
E  108 433
E  115 202
E  165 439
E  200 340
E  209 316
E  210 378
E  31 405
E  43 267
E  99 346
E  205 295
E  290 495
E  325 484
E  22 36
E  60 330
E  72 113
E  84 354
E  135 309
E  189 298
E  442 477
E  25 344
E  53 263
E  82 156
E  89 139
E  134 441
E  149 349
E  172 389
E  310 391
E  427 473
E  8 12
E  24 128
E  24 348
E  40 152
E  44 197
E  79 125
E  146 443
E  189 392
E  192 263
E  276 422
E  388 475
E  8 366
E  22 191
E  95 451
E  143 251
E  160 301
E  270 353
E  25 230
E  56 74
E  60 293
E  61 361
E  67 396
E  114 261
E  150 289
E  371 457
E  15 224
E  150 214
E  245 426
E  273 382
E  16 465
E  101 438
E  161 333
E  175 226
E  218 415
E  234 431
E  4 195
E  22 329
E  47 454
E  58 359
E  68 210
E  101 422
E  134 447
E  156 266
E  193 225
E  223 392
E  46 411
E  53 313
E  119 367
E  199 321
E  211 327
E  226 418
E  233 322
E  335 434
E  21 26
E  37 160
E  69 202
E  92 176
E  117 136
E  144 152
E  251 466
E  282 486
E  440 451
END

SECTION Terminals
Terminals  500
T  0 0
T  1 0
T  2 0
T  3 -8.04127
T  4 0
T  5 4.15931
T  6 3.99671
T  7 0.769748
T  8 0
T  9 5.73097
T  10 -6.27823
T  11 0
T  12 0
T  13 3.92418
T  14 0
T  15 0
T  16 0
T  17 3.41041
T  18 9.66015
T  19 0
T  20 -6.29534
T  21 0
T  22 1.20507
T  23 0
T  24 -4.3114
T  25 9.67902
T  26 0
T  27 7.541
T  28 0
T  29 0
T  30 6.03843
T  31 0
T  32 0
T  33 0
T  34 7.89985
T  35 0
T  36 -5.2458
T  37 4.71398
T  38 9.9239
T  39 0
T  40 3.14085
T  41 0
T  42 0
T  43 1.70955
T  44 4.3646
T  45 0
T  46 0
T  47 -7.52776
T  48 7.23776
T  49 5.757
T  50 0
T  51 0
T  52 0
T  53 0
T  54 0
T  55 0
T  56 0
T  57 0
T  58 0
T  59 9.39709
T  60 5.76221
T  61 -5.59159
T  62 6.35246
T  63 2.68897
T  64 7.94236
T  65 0
T  66 4.68036
T  67 0
T  68 0
T  69 2.3256
T  70 1.18422
T  71 -8.07928
T  72 0
T  73 -6.30398
T  74 4.17035
T  75 3.93233
T  76 0
T  77 0
T  78 0
T  79 0
T  80 3.83986
T  81 0
T  82 -5.15499
T  83 0
T  84 0
T  85 0
T  86 3.03634
T  87 9.50605
T  88 -7.13264
T  89 0
T  90 4.76498
T  91 9.91329
T  92 3.29128
T  93 0
T  94 4.58182
T  95 4.96882
T  96 6.74172
T  97 0
T  98 0.213452
T  99 0
T  100 0
T  101 -2.51307
T  102 0
T  103 0.572261
T  104 0
T  105 1.81294
T  106 0
T  107 0
T  108 0.662767
T  109 -6.00151
T  110 0
T  111 6.08849
T  112 0
T  113 0
T  114 0
T  115 0
T  116 1.78476
T  117 7.97594
T  118 0
T  119 0
T  120 7.01525
T  121 0
T  122 7.91396
T  123 0.80438
T  124 0
T  125 0
T  126 6.42909
T  127 0
T  128 9.45065
T  129 0
T  130 6.22861
T  131 5.20178
T  132 0
T  133 0
T  134 0
T  135 -4.70545
T  136 4.38144
T  137 0.157153
T  138 0
T  139 -4.5486
T  140 2.64935
T  141 5.97615
T  142 0
T  143 -7.79545
T  144 2.46576
T  145 0
T  146 3.91949
T  147 0
T  148 0
T  149 0
T  150 0
T  151 6.79833
T  152 0.811174
T  153 0
T  154 8.79338
T  155 7.9884
T  156 8.578
T  157 0
T  158 5.67166
T  159 4.14828
T  160 0
T  161 2.17744
T  162 5.35063
T  163 0
T  164 0
T  165 0
T  166 6.69634
T  167 -5.81314
T  168 0
T  169 -7.21307
T  170 3.14757
T  171 -0.482902
T  172 0
T  173 0.230127
T  174 0
T  175 0
T  176 8.50546
T  177 0
T  178 0
T  179 1.32337
T  180 0
T  181 4.07108
T  182 8.30571
T  183 0
T  184 0
T  185 8.72744
T  186 7.77046
T  187 0
T  188 0
T  189 0
T  190 -7.89129
T  191 0
T  192 0
T  193 0
T  194 0.508875
T  195 0
T  196 0
T  197 -0.627741
T  198 0
T  199 9.23438
T  200 7.0035
T  201 6.05566
T  202 -2.27868
T  203 0
T  204 0.857342
T  205 7.36575
T  206 0
T  207 2.98276
T  208 4.84407
T  209 0
T  210 7.62462
T  211 5.84398
T  212 0
T  213 0
T  214 7.83103
T  215 3.99381
T  216 0
T  217 0
T  218 7.41484
T  219 0
T  220 0
T  221 5.08482
T  222 0
T  223 0
T  224 1.8864
T  225 -7.3695
T  226 0
T  227 -6.40422
T  228 3.45727
T  229 0
T  230 3.20495
T  231 8.62607
T  232 -6.84971
T  233 0
T  234 0
T  235 0
T  236 8.02257
T  237 0
T  238 8.63691
T  239 3.66533
T  240 0
T  241 0
T  242 0
T  243 6.52266
T  244 -1.1242
T  245 0
T  246 9.78781
T  247 0
T  248 0
T  249 0
T  250 0
T  251 0
T  252 0
T  253 -0.66421
T  254 0
T  255 0
T  256 0
T  257 0
T  258 0
T  259 0
T  260 0
T  261 0
T  262 0
T  263 3.27476
T  264 0
T  265 0
T  266 7.15255
T  267 -8.73629
T  268 0.788623
T  269 3.71738
T  270 0
T  271 2.9115
T  272 0
T  273 3.55675
T  274 8.0924
T  275 -8.39674
T  276 3.31681
T  277 4.34916
T  278 2.79851
T  279 0
T  280 0
T  281 3.58074
T  282 4.9197
T  283 0
T  284 0
T  285 -7.87065
T  286 0
T  287 0
T  288 9.47715
T  289 0
T  290 6.50355
T  291 0
T  292 0
T  293 5.05244
T  294 0
T  295 0
T  296 0
T  297 0
T  298 0
T  299 0
T  300 0
T  301 0.178965
T  302 7.93488
T  303 0.840131
T  304 0
T  305 0
T  306 0
T  307 4.027
T  308 0
T  309 -1.18114
T  310 9.20594
T  311 0
T  312 -1.94065
T  313 3.73815
T  314 -1.77301
T  315 0
T  316 0
T  317 0
T  318 0
T  319 -0.00788093
T  320 0
T  321 0
T  322 0.295918
T  323 0
T  324 2.94811
T  325 0
T  326 8.65907
T  327 0
T  328 -7.08887
T  329 6.02032
T  330 0
T  331 -5.40779
T  332 0
T  333 -7.33991
T  334 0.220754
T  335 6.42387
T  336 9.61454
T  337 6.9683
T  338 0
T  339 0
T  340 3.83903
T  341 0
T  342 0
T  343 0
T  344 5.74412
T  345 1.48919
T  346 0
T  347 1.06561
T  348 0
T  349 0
T  350 5.80182
T  351 0
T  352 -7.95041
T  353 6.26209
T  354 -0.3543
T  355 9.26762
T  356 0
T  357 1.14433
T  358 6.10182
T  359 0
T  360 0
T  361 0
T  362 -3.92927
T  363 1.78031
T  364 6.99835
T  365 1.77936
T  366 0
T  367 0.425239
T  368 0
T  369 5.56929
T  370 0
T  371 0
T  372 7.60851
T  373 0
T  374 2.20493
T  375 7.92389
T  376 0
T  377 0
T  378 0
T  379 -6.91418
T  380 0
T  381 5.49244
T  382 0
T  383 0
T  384 0
T  385 4.03802
T  386 -8.90642
T  387 7.21393
T  388 -8.90054
T  389 0
T  390 0
T  391 8.20977
T  392 -4.04381
T  393 0
T  394 0
T  395 2.51641
T  396 9.95914
T  397 9.58107
T  398 0.585072
T  399 0
T  400 4.40369
T  401 0
T  402 2.46794
T  403 0
T  404 0
T  405 0
T  406 7.39214
T  407 0
T  408 5.99137
T  409 0
T  410 0
T  411 9.41976
T  412 0
T  413 3.00698
T  414 0
T  415 2.14681
T  416 0
T  417 0
T  418 0.4991
T  419 0
T  420 -5.38312
T  421 0
T  422 7.89529
T  423 9.54354
T  424 0
T  425 4.73343
T  426 2.25995
T  427 0
T  428 -8.22825
T  429 -3.71857
T  430 0.397562
T  431 -5.55772
T  432 3.02046
T  433 0
T  434 7.00846
T  435 -5.03238
T  436 0
T  437 0
T  438 0
T  439 4.85635
T  440 8.05768
T  441 3.84199
T  442 0
T  443 0
T  444 0
T  445 0
T  446 0
T  447 -9.03058
T  448 -9.13301
T  449 1.30542
T  450 0
T  451 4.24224
T  452 0
T  453 4.9421
T  454 0
T  455 3.27928
T  456 0
T  457 -7.58701
T  458 -5.15884
T  459 3.96615
T  460 5.81197
T  461 2.65218
T  462 0.745189
T  463 0
T  464 0
T  465 0
T  466 0
T  467 0
T  468 0
T  469 0
T  470 0
T  471 4.48829
T  472 9.63967
T  473 0.113972
T  474 2.2846
T  475 5.89484
T  476 -2.94775
T  477 2.99978
T  478 8.16765
T  479 0
T  480 9.665
T  481 0
T  482 0
T  483 0
T  484 4.76296
T  485 7.77492
T  486 0
T  487 2.07918
T  488 6.34782
T  489 0
T  490 -9.05427
T  491 -4.26633
T  492 0
T  493 0
T  494 2.10139
T  495 1.18959
T  496 0
T  497 0
T  498 4.5541
T  499 9.23804
END

EOF
